(set-logic QF_NRA)
(set-info :source |Benchmarks generated from hycomp (https://es-static.fbk.eu/tools/hycomp/). BMC instances of non-linear hybrid automata taken from: Alessandro Cimatti, Sergio Mover, Stefano Tonetta, A quantifier-free SMT encoding of non-linear hybrid automata, FMCAD 2012 and Alessandro Cimatti, Sergio Mover, Stefano Tonetta, Quantier-free encoding of invariants for Hybrid Systems, Formal Methods in System Design. This instance solves a BMC problem of depth 1 and uses the quantifier free encoding with equivalences encoding. Contacts: Sergio Mover (mover@fbk.eu), Stefano Tonetta (tonettas@fbk.eu), Alessandro Cimatti (cimatti@fbk.eu).|)
(set-info :smt-lib-version 2.0)
(set-info :category "industrial")
(set-info :status unsat)
;; MathSAT API call trace
;; generated on Mon Mar 19 10:50:30 2012
(declare-fun b.delta__AT0 () Real)
(declare-fun b.EVENT.0__AT0 () Bool)
(declare-fun b.y__AT1 () Real)
(declare-fun b.counter.0__AT1 () Bool)
(declare-fun b.counter.1__AT1 () Bool)
(declare-fun b.counter.2__AT1 () Bool)
(declare-fun speed_loss__AT0 () Real)
(declare-fun b.counter.3__AT1 () Bool)
(declare-fun b.EVENT.0__AT1 () Bool)
(declare-fun b.EVENT.1__AT1 () Bool)
(declare-fun b.counter.3__AT0 () Bool)
(declare-fun b.x__AT0 () Real)
(declare-fun b.speed_y__AT0 () Real)
(declare-fun b.speed_x__AT0 () Real)
(declare-fun b.x__AT1 () Real)
(declare-fun b.EVENT.1__AT0 () Bool)
(declare-fun b.event_is_timed__AT1 () Bool)
(declare-fun b.time__AT0 () Real)
(declare-fun b.speed_x__AT1 () Real)
(declare-fun b.speed_y__AT1 () Real)
(declare-fun b.y__AT0 () Real)
(declare-fun b.counter.0__AT0 () Bool)
(declare-fun b.counter.1__AT0 () Bool)
(declare-fun g__AT0 () Real)
(declare-fun b.event_is_timed__AT0 () Bool)
(declare-fun b.counter.2__AT0 () Bool)
(declare-fun b.time__AT1 () Real)
(declare-fun b.delta__AT1 () Real)
(assert (let ((.def_82 (* (- 1.0) g__AT0)))
(let ((.def_83 (* (/ 1 2) .def_82)))
(let ((.def_91 (* 2.0 .def_83)))
(let ((.def_276 (* .def_91 b.delta__AT1)))
(let ((.def_277 (+ b.speed_y__AT1 .def_276)))
(let ((.def_281 (<= .def_277 0.0 )))
(let ((.def_280 (<= b.speed_y__AT1 0.0 )))
(let ((.def_282 (and .def_280 .def_281)))
(let ((.def_278 (<= 0.0 .def_277)))
(let ((.def_275 (<= 0.0 b.speed_y__AT1)))
(let ((.def_279 (and .def_275 .def_278)))
(let ((.def_283 (or .def_279 .def_282)))
(let ((.def_270 (* b.speed_y__AT1 b.delta__AT1)))
(let ((.def_268 (* b.delta__AT1 b.delta__AT1)))
(let ((.def_269 (* .def_83 .def_268)))
(let ((.def_271 (+ .def_269 .def_270)))
(let ((.def_272 (+ b.y__AT1 .def_271)))
(let ((.def_273 (<= 0.0 .def_272)))
(let ((.def_251 (<= 0.0 b.y__AT1)))
(let ((.def_274 (and .def_251 .def_273)))
(let ((.def_284 (and .def_274 .def_283)))
(let ((.def_63 (<= g__AT0 10.0 )))
(let ((.def_62 (<= 8.0 g__AT0)))
(let ((.def_64 (and .def_62 .def_63)))
(let ((.def_285 (and .def_64 .def_284)))
(let ((.def_71 (<= speed_loss__AT0 (/ 1 2))))
(let ((.def_68 (<= (/ 1 10) speed_loss__AT0)))
(let ((.def_72 (and .def_68 .def_71)))
(let ((.def_286 (and .def_72 .def_285)))
(let ((.def_38 (not b.counter.0__AT0)))
(let ((.def_260 (or b.counter.1__AT0 .def_38)))
(let ((.def_261 (or b.counter.2__AT0 .def_260)))
(let ((.def_41 (not b.counter.2__AT0)))
(let ((.def_36 (not b.counter.1__AT0)))
(let ((.def_39 (and .def_36 .def_38)))
(let ((.def_259 (or .def_39 .def_41)))
(let ((.def_262 (and .def_259 .def_261)))
(let ((.def_263 (or b.counter.3__AT0 .def_262)))
(let ((.def_256 (or .def_39 b.counter.2__AT0)))
(let ((.def_255 (or .def_36 .def_41)))
(let ((.def_257 (and .def_255 .def_256)))
(let ((.def_44 (not b.counter.3__AT0)))
(let ((.def_258 (or .def_44 .def_257)))
(let ((.def_264 (and .def_258 .def_263)))
(let ((.def_73 (and .def_64 .def_72)))
(let ((.def_252 (and .def_73 .def_251)))
(let ((.def_248 (not b.EVENT.0__AT1)))
(let ((.def_246 (not b.EVENT.1__AT1)))
(let ((.def_249 (or .def_246 .def_248)))
(let ((.def_9 (not b.counter.0__AT1)))
(let ((.def_6 (not b.counter.1__AT1)))
(let ((.def_239 (or .def_6 .def_9)))
(let ((.def_243 (or b.counter.3__AT1 .def_239)))
(let ((.def_240 (or b.counter.2__AT1 .def_239)))
(let ((.def_4 (not b.counter.2__AT1)))
(let ((.def_238 (or .def_4 .def_9)))
(let ((.def_241 (and .def_238 .def_240)))
(let ((.def_14 (not b.counter.3__AT1)))
(let ((.def_242 (or .def_14 .def_241)))
(let ((.def_244 (and .def_242 .def_243)))
(let ((.def_250 (and .def_244 .def_249)))
(let ((.def_253 (and .def_250 .def_252)))
(let ((.def_233 (<= 0.0 b.delta__AT0)))
(let ((.def_57 (not b.EVENT.0__AT0)))
(let ((.def_55 (not b.EVENT.1__AT0)))
(let ((.def_133 (and .def_55 .def_57)))
(let ((.def_134 (not .def_133)))
(let ((.def_234 (or .def_134 .def_233)))
(let ((.def_235 (or b.EVENT.1__AT0 .def_234)))
(let ((.def_182 (= b.counter.0__AT1 b.counter.0__AT0)))
(let ((.def_180 (= b.counter.1__AT1 b.counter.1__AT0)))
(let ((.def_178 (= b.counter.2__AT1 b.counter.2__AT0)))
(let ((.def_177 (= b.counter.3__AT1 b.counter.3__AT0)))
(let ((.def_179 (and .def_177 .def_178)))
(let ((.def_181 (and .def_179 .def_180)))
(let ((.def_183 (and .def_181 .def_182)))
(let ((.def_230 (or .def_134 .def_183)))
(let ((.def_231 (or b.EVENT.1__AT0 .def_230)))
(let ((.def_190 (= b.x__AT1 b.x__AT0)))
(let ((.def_187 (= b.y__AT0 b.y__AT1)))
(let ((.def_224 (and .def_187 .def_190)))
(let ((.def_115 (= b.speed_x__AT0 b.speed_x__AT1)))
(let ((.def_225 (and .def_115 .def_224)))
(let ((.def_176 (= b.speed_y__AT0 b.speed_y__AT1)))
(let ((.def_226 (and .def_176 .def_225)))
(let ((.def_221 (= b.delta__AT0 0.0 )))
(let ((.def_222 (and .def_133 .def_221)))
(let ((.def_223 (not .def_222)))
(let ((.def_227 (or .def_223 .def_226)))
(let ((.def_228 (or b.EVENT.1__AT0 .def_227)))
(let ((.def_201 (= b.time__AT0 b.time__AT1)))
(let ((.def_213 (and .def_190 .def_201)))
(let ((.def_214 (and .def_187 .def_213)))
(let ((.def_215 (and .def_115 .def_214)))
(let ((.def_216 (and .def_176 .def_215)))
(let ((.def_217 (and .def_183 .def_216)))
(let ((.def_218 (or .def_55 .def_217)))
(let ((.def_204 (* (- 1.0) b.time__AT1)))
(let ((.def_207 (+ b.delta__AT0 .def_204)))
(let ((.def_208 (+ b.time__AT0 .def_207)))
(let ((.def_209 (= .def_208 0.0 )))
(let ((.def_210 (or .def_134 .def_209)))
(let ((.def_211 (or b.EVENT.1__AT0 .def_210)))
(let ((.def_202 (or .def_133 .def_201)))
(let ((.def_203 (or b.EVENT.1__AT0 .def_202)))
(let ((.def_212 (and .def_203 .def_211)))
(let ((.def_219 (and .def_212 .def_218)))
(let ((.def_197 (= .def_134 b.event_is_timed__AT1)))
(let ((.def_195 (= b.event_is_timed__AT0 .def_133)))
(let ((.def_198 (and .def_195 .def_197)))
(let ((.def_184 (and .def_176 .def_183)))
(let ((.def_90 (<= 0.0 b.speed_y__AT0)))
(let ((.def_137 (not .def_90)))
(let ((.def_136 (= b.y__AT0 0.0 )))
(let ((.def_138 (and .def_136 .def_137)))
(let ((.def_185 (or .def_138 .def_184)))
(let ((.def_153 (or .def_9 b.counter.0__AT0)))
(let ((.def_152 (or b.counter.0__AT1 .def_38)))
(let ((.def_154 (and .def_152 .def_153)))
(let ((.def_155 (and .def_6 .def_154)))
(let ((.def_156 (or b.counter.1__AT0 .def_155)))
(let ((.def_151 (or b.counter.1__AT1 .def_36)))
(let ((.def_157 (and .def_151 .def_156)))
(let ((.def_168 (and .def_4 .def_157)))
(let ((.def_169 (or b.counter.2__AT0 .def_168)))
(let ((.def_163 (and .def_6 .def_38)))
(let ((.def_164 (or b.counter.1__AT0 .def_163)))
(let ((.def_165 (and .def_151 .def_164)))
(let ((.def_166 (and b.counter.2__AT1 .def_165)))
(let ((.def_167 (or .def_41 .def_166)))
(let ((.def_170 (and .def_167 .def_169)))
(let ((.def_171 (and b.counter.3__AT1 .def_170)))
(let ((.def_172 (or b.counter.3__AT0 .def_171)))
(let ((.def_158 (and b.counter.2__AT1 .def_157)))
(let ((.def_159 (or b.counter.2__AT0 .def_158)))
(let ((.def_147 (or b.counter.1__AT1 b.counter.1__AT0)))
(let ((.def_145 (and .def_6 b.counter.0__AT1)))
(let ((.def_146 (or .def_36 .def_145)))
(let ((.def_148 (and .def_146 .def_147)))
(let ((.def_149 (and .def_4 .def_148)))
(let ((.def_150 (or .def_41 .def_149)))
(let ((.def_160 (and .def_150 .def_159)))
(let ((.def_161 (and .def_14 .def_160)))
(let ((.def_162 (or .def_44 .def_161)))
(let ((.def_173 (and .def_162 .def_172)))
(let ((.def_141 (* (- 1.0) speed_loss__AT0)))
(let ((.def_142 (+ 1.0 .def_141)))
(let ((.def_140 (* (- 1.0) b.speed_y__AT0)))
(let ((.def_143 (* .def_140 .def_142)))
(let ((.def_144 (= b.speed_y__AT1 .def_143)))
(let ((.def_174 (and .def_144 .def_173)))
(let ((.def_139 (not .def_138)))
(let ((.def_175 (or .def_139 .def_174)))
(let ((.def_186 (and .def_175 .def_185)))
(let ((.def_188 (and .def_186 .def_187)))
(let ((.def_189 (and .def_115 .def_188)))
(let ((.def_191 (and .def_189 .def_190)))
(let ((.def_192 (or .def_133 .def_191)))
(let ((.def_193 (or b.EVENT.1__AT0 .def_192)))
(let ((.def_125 (* (- 1.0) b.y__AT1)))
(let ((.def_85 (* b.speed_y__AT0 b.delta__AT0)))
(let ((.def_128 (+ .def_85 .def_125)))
(let ((.def_80 (* b.delta__AT0 b.delta__AT0)))
(let ((.def_84 (* .def_80 .def_83)))
(let ((.def_129 (+ .def_84 .def_128)))
(let ((.def_130 (+ b.y__AT0 .def_129)))
(let ((.def_131 (= .def_130 0.0 )))
(let ((.def_119 (* (- 1.0) b.speed_y__AT1)))
(let ((.def_117 (* b.delta__AT0 .def_82)))
(let ((.def_120 (+ .def_117 .def_119)))
(let ((.def_121 (+ b.speed_y__AT0 .def_120)))
(let ((.def_122 (= .def_121 0.0 )))
(let ((.def_107 (* (- 1.0) b.x__AT1)))
(let ((.def_111 (+ .def_107 b.x__AT0)))
(let ((.def_105 (* b.delta__AT0 b.speed_x__AT0)))
(let ((.def_112 (+ .def_105 .def_111)))
(let ((.def_113 (= .def_112 0.0 )))
(let ((.def_116 (and .def_113 .def_115)))
(let ((.def_123 (and .def_116 .def_122)))
(let ((.def_132 (and .def_123 .def_131)))
(let ((.def_135 (or .def_132 .def_134)))
(let ((.def_194 (and .def_135 .def_193)))
(let ((.def_199 (and .def_194 .def_198)))
(let ((.def_220 (and .def_199 .def_219)))
(let ((.def_229 (and .def_220 .def_228)))
(let ((.def_232 (and .def_229 .def_231)))
(let ((.def_236 (and .def_232 .def_235)))
(let ((.def_237 (and .def_55 .def_236)))
(let ((.def_254 (and .def_237 .def_253)))
(let ((.def_265 (and .def_254 .def_264)))
(let ((.def_92 (* b.delta__AT0 .def_91)))
(let ((.def_93 (+ b.speed_y__AT0 .def_92)))
(let ((.def_97 (<= .def_93 0.0 )))
(let ((.def_96 (<= b.speed_y__AT0 0.0 )))
(let ((.def_98 (and .def_96 .def_97)))
(let ((.def_94 (<= 0.0 .def_93)))
(let ((.def_95 (and .def_90 .def_94)))
(let ((.def_99 (or .def_95 .def_98)))
(let ((.def_86 (+ .def_84 .def_85)))
(let ((.def_87 (+ b.y__AT0 .def_86)))
(let ((.def_88 (<= 0.0 .def_87)))
(let ((.def_74 (<= 0.0 b.y__AT0)))
(let ((.def_89 (and .def_74 .def_88)))
(let ((.def_100 (and .def_89 .def_99)))
(let ((.def_101 (and .def_64 .def_100)))
(let ((.def_102 (and .def_72 .def_101)))
(let ((.def_75 (and .def_73 .def_74)))
(let ((.def_58 (or .def_55 .def_57)))
(let ((.def_48 (or .def_36 .def_38)))
(let ((.def_52 (or b.counter.3__AT0 .def_48)))
(let ((.def_49 (or b.counter.2__AT0 .def_48)))
(let ((.def_47 (or .def_38 .def_41)))
(let ((.def_50 (and .def_47 .def_49)))
(let ((.def_51 (or .def_44 .def_50)))
(let ((.def_53 (and .def_51 .def_52)))
(let ((.def_59 (and .def_53 .def_58)))
(let ((.def_76 (and .def_59 .def_75)))
(let ((.def_42 (and .def_39 .def_41)))
(let ((.def_45 (and .def_42 .def_44)))
(let ((.def_33 (= b.speed_y__AT0 0.0 )))
(let ((.def_30 (= b.y__AT0 10.0 )))
(let ((.def_25 (= b.time__AT0 0.0 )))
(let ((.def_27 (and .def_25 b.event_is_timed__AT0)))
(let ((.def_31 (and .def_27 .def_30)))
(let ((.def_34 (and .def_31 .def_33)))
(let ((.def_46 (and .def_34 .def_45)))
(let ((.def_77 (and .def_46 .def_76)))
(let ((.def_17 (or b.counter.1__AT1 .def_9)))
(let ((.def_18 (or b.counter.2__AT1 .def_17)))
(let ((.def_10 (and .def_6 .def_9)))
(let ((.def_16 (or .def_4 .def_10)))
(let ((.def_19 (and .def_16 .def_18)))
(let ((.def_20 (or b.counter.3__AT1 .def_19)))
(let ((.def_11 (or b.counter.2__AT1 .def_10)))
(let ((.def_7 (or .def_4 .def_6)))
(let ((.def_12 (and .def_7 .def_11)))
(let ((.def_15 (or .def_12 .def_14)))
(let ((.def_21 (and .def_15 .def_20)))
(let ((.def_22 (not .def_21)))
(let ((.def_78 (and .def_22 .def_77)))
(let ((.def_103 (and .def_78 .def_102)))
(let ((.def_266 (and .def_103 .def_265)))
(let ((.def_287 (and .def_266 .def_286)))
.def_287))))))))))))))))))))))))))))))))))))))))))))))))))))))))))))))))))))))))))))))))))))))))))))))))))))))))))))))))))))))))))))))))))))))))))))))))))))))))))))))))))))))))))))))))))))))))))))))))))))))))))))))))))))))))))))))))))))))))))))))))))))
(check-sat)
(exit)
